100 8
524 571
293 679
875 742
861 749
580 80
235 298
745 764
586 576
784 236
533 165
358 497
304 600
326 647
672 607
276 199
893 553
891 806
848 178
851 415
259 411
875 374
411 706
730 613
981 550
301 126
62 752
204 791
787 762
652 551
601 757
501 721
772 60
662 296
174 403
140 708
942 683
736 219
454 121
776 864
466 528
798 209
750 742
40 651
743 800
591 858
340 621
505 843
198 675
351 735
941 404
734 860
188 719
632 824
224 500
378 170
888 881
647 552
584 198
801 509
488 604
948 471
898 422
222 622
869 195
899 342
965 481
431 183
259 478
412 675
188 333
278 561
442 698
630 650
436 269
762 115
346 629
247 656
221 771
220 669
954 501
642 121
848 360
286 302
883 377
342 682
651 920
976 715
238 499
674 557
389 556
224 453
313 679
965 376
838 218
395 799
27 808
321 693
466 606
376 768
109 283
